NAME 
ROWS
 N  OBJ
 L  R0      
 L  R1      
 E  R2      
COLUMNS
    MARKER    'MARKER'                 'INTORG'
    I0(3)     OBJ       -149
    I0(3)     R0        -384
    I0(3)     R1        -137
    I0(3)     R2        936
    I1(3)     OBJ       -741
    I1(3)     R0        -23
    I1(3)     R1        -587
    I1(3)     R2        662
    I2(3)     OBJ       -532
    I2(3)     R0        -987
    I2(3)     R1        -916
    I2(3)     R2        983
    I3(3)     OBJ       -380
    I3(3)     R0        -847
    I3(3)     R1        -626
    I3(3)     R2        344
    I4(3)     OBJ       -656
    I4(3)     R0        -18
    I4(3)     R1        -580
    I4(3)     R2        408
    I5(3)     OBJ       -391
    I5(3)     R0        -504
    I5(3)     R1        -703
    I5(3)     R2        765
    I6(3)     OBJ       -694
    I6(3)     R0        -104
    I6(3)     R1        -774
    I6(3)     R2        406
    I7(3)     OBJ       -371
    I7(3)     R0        -322
    I7(3)     R1        -662
    I7(3)     R2        544
    I8(3)     OBJ       -579
    I8(3)     R0        -253
    I8(3)     R1        -935
    I8(3)     R2        240
    I9(3)     OBJ       -662
    I9(3)     R0        -668
    I9(3)     R1        -86
    I9(3)     R2        840
    I10(3)    OBJ       -154
    I10(3)    R0        -215
    I10(3)    R1        -840
    I10(3)    R2        259
    I11(3)    OBJ       -201
    I11(3)    R0        -402
    I11(3)    R1        -319
    I11(3)    R2        376
    I12(3)    OBJ       -489
    I12(3)    R0        -408
    I12(3)    R1        -108
    I12(3)    R2        426
    I13(3)    OBJ       -993
    I13(3)    R0        -746
    I13(3)    R1        -826
    I13(3)    R2        174
    I14(3)    OBJ       -788
    I14(3)    R0        -782
    I14(3)    R1        -165
    I14(3)    R2        2
    I15(3)    OBJ       -148
    I15(3)    R0        -63
    I15(3)    R1        -126
    I15(3)    R2        6
    I16(3)    OBJ       -82
    I16(3)    R0        -137
    I16(3)    R1        -329
    I16(3)    R2        876
    I17(3)    OBJ       -232
    I17(3)    R0        -476
    I17(3)    R1        -269
    I17(3)    R2        775
    I18(3)    OBJ       -312
    I18(3)    R0        -434
    I18(3)    R1        -448
    I18(3)    R2        667
    I19(3)    OBJ       -178
    I19(3)    R0        -715
    I19(3)    R1        -582
    I19(3)    R2        811
    I20(1)    R2        1
    MARKER    'MARKER'                 'INTEND'
RHS
    RHS1      R0        -5140
    RHS1      R1        -6497
    RHS1      R2        5250
BOUNDS
 UP BND1      I0(3)     1
 UP BND1      I1(3)     1
 UP BND1      I2(3)     1
 UP BND1      I3(3)     1
 UP BND1      I4(3)     1
 UP BND1      I5(3)     1
 UP BND1      I6(3)     1
 UP BND1      I7(3)     1
 UP BND1      I8(3)     1
 UP BND1      I9(3)     1
 UP BND1      I10(3)    1
 UP BND1      I11(3)    1
 UP BND1      I12(3)    1
 UP BND1      I13(3)    1
 UP BND1      I14(3)    1
 UP BND1      I15(3)    1
 UP BND1      I16(3)    1
 UP BND1      I17(3)    1
 UP BND1      I18(3)    1
 UP BND1      I19(3)    1
 LI BND1      I20(1)    0
ENDATA
